
Gurobi 11.0.3 (linux64) logging started Sun Nov 24 09:46:08 2024

Set parameter LogFile to value "/home/yihong/Coding/OR_SUC/SUC_results_bigM100000_thread4/case24_ieee_rts_theta0.5_epsilon0.025_gurobi_seed1230000_num_gen100_N_WDR100_load_scaling_factor1_proposed_T24quadra_cost.txt"
Set parameter TimeLimit to value 3600
Gurobi Optimizer version 11.0.3 build v11.0.3rc0 (linux64 - "Ubuntu 20.04.6 LTS")

CPU model: AMD EPYC 7532 32-Core Processor, instruction set [SSE2|AVX|AVX2]
Thread count: 64 physical cores, 128 logical processors, using up to 4 threads

Optimize a model with 51942 rows, 29861 columns and 708794 nonzeros
Model fingerprint: 0x4cec34a7
Model has 2400 quadratic constraints
Variable types: 27461 continuous, 2400 integer (2400 binary)
Coefficient statistics:
  Matrix range     [3e-04, 2e+03]
  QMatrix range    [2e-03, 8e-03]
  QLMatrix range   [5e-02, 6e+01]
  Objective range  [1e+00, 1e+00]
  Bounds range     [1e+00, 1e+00]
  RHS range        [1e+00, 9e+03]
Presolve removed 42106 rows and 12936 columns
Presolve time: 0.26s
Presolved: 9836 rows, 16925 columns, 62089 nonzeros
Presolved model has 2400 quadratic constraint(s)
Variable types: 14525 continuous, 2400 integer (2400 binary)

Root relaxation: objective 7.606665e+04, 8646 iterations, 0.21 seconds (0.30 work units)

    Nodes    |    Current Node    |     Objective Bounds      |     Work
 Expl Unexpl |  Obj  Depth IntInf | Incumbent    BestBd   Gap | It/Node Time

H    0     0                    687675.41972 76066.6505  88.9%     -    0s
*    0     0               0    687675.41972 76066.6505  88.9%     -    0s
     0     0 409687.702    0  743 687675.420 409687.702  40.4%     -    1s
     0     0 648966.001    0  471 687675.420 648966.001  5.63%     -    1s
     0     0 649029.551    0   52 687675.420 649029.551  5.62%     -    1s
     0     0 649128.415    0   31 687675.420 649128.415  5.61%     -    1s
     0     0 649129.675    0   32 687675.420 649129.675  5.61%     -    1s
     0     0 649130.383    0   32 687675.420 649130.383  5.61%     -    1s
     0     2 649130.383    0   32 687675.420 649130.383  5.61%     -    2s
H  282   295                    649843.71918 649136.897  0.11%  17.6    4s
*  282   295              71    649843.71918 649136.897  0.11%  17.6    4s
   312   317     cutoff   81      649843.719 649142.060  0.11%  17.0    5s
H  413   382                    649386.04779 649142.460  0.04%  16.4    5s
*  413   382              51    649386.04779 649142.460  0.04%  16.4    5s

Cutting planes:
  Gomory: 42
  Lift-and-project: 11
  Implied bound: 257
  MIR: 14
  Flow cover: 105
  RLT: 407
  Relax-and-lift: 76

Explored 573 nodes (31381 simplex iterations) in 6.57 seconds (8.47 work units)
Thread count was 4 (of 128 available processors)

Solution count 4: 649386 649386 649844 687675 

Optimal solution found (tolerance 1.00e-03)
Warning: max constraint violation (2.4717e-07) exceeds tolerance
Best objective 6.493860477916e+05, best bound 6.491424596849e+05, gap 0.0375%
